50
845	758	421	259	512	405	784	304	477	584	909	505	282	756	619	251	910	983	811	903	311	730	899	684	473	101	435	611	914	967	478	866	261	806	549	15	720	399	825	669	2	494	868	244	326	871	192	568	239	968
804	448	81	321	508	933	110	552	707	548	815	541	964	604	588	445	597	385	576	291	190	187	613	657	477	90	758	877	924	843	899	924	541	392	706	276	812	850	896	590	950	580	451	661	997	917	794	83	613	487
14778